1439339692
1439340810
1439340949
1439341366
1439341478
1439341611
1439344578
1439347730
1439347930
1439347968
1439349354
1439350567
1439350580
1439369880
1439383045
1439298942
1439298942
1439298942
1439298942
1439298942
1439298942
1439298942
1439384313
1439384326
1439384338
1439384353
1439384364
1439384377
1439384535
1439384551
1439384569
1439384675
1439385866
1439386157
1439386205
1439386285
1439386425
1439386425
1439386425
1439386425
1439386425
1439386425
1439386425
1439386425
1439386425
1439386425
1439386425
1439386425
1439386425
1439386425
1439386425
1439386425
1439386425
1439390172
